Traveling Salesman Problem/TSP_generados/Aleatorio1620391009_12.tsp
NAME: Aleatorio1620391009_12.tsp
COMMENT: Randomly generated scenario
TYPE: TSP
DIMENSION: 12
EDGE_WEIGHT_TYPE: ATT
NODE_COORD_SECTION
1 31.25 11.67
2 15.91 13.46
3 41.15 35.93
4 46.19 12.3
5 49.2 47.89
6 42.07 19.94
7 33.24 29.6
8 35.24 28.25
9 36.41 37.3
10 27.51 14.14
11 44.03 4.9
12 37.06 4.44
