Traveling Salesman Problem/TSP_generados/Aleatorio1620391009_12.opt.tour
NAME: Aleatorio1620391009_12.opt.tour
COMMENT: Optimal solution for Aleatorio1620391009_12 (130.86870937503318)
TYPE: TOUR
DIMENSION: 12
TOUR_SECTION
1 10 2 8 7 9 5 3 6 4 11 12
-1
EOF
